dft
  xc pbe
  nopen 0
  charge 0
end

geometry
  units angstrom
   H          0.00000000      0.00000000      0.37093843
   H          0.00000000      0.00000000     -0.37093843
end