dft
  xc pbe
  nopen 1
  charge 0
end

geometry
  units angstrom
   O          0.00000000      0.00000000      0.48444828
   H          0.00000000      0.00000000     -0.48444828
end