dft
  xc pbe
  restart true
  noiter true
  protocol [1.e-6]
  nopen 0
  charge -1
end

geometry
  units angstrom
   F          0.00000000      0.00000000     -1.79137135
   C          0.00000000      0.00000000     -0.36561703
   H         -0.51179113      0.88644824     -0.01758668
   H         -0.51179113     -0.88644824     -0.01758668
   H          1.02358226      0.00000000     -0.01758668
   F          0.00000000      0.00000000      2.20974841
end