dft
  xc pbe
  restart true
  noiter true
  protocol [1.e-6]
  nopen 0
  charge 0
end

geometry
  units angstrom
   CL         0.00000000      0.00000000      0.63722413
   H          0.00000000      0.00000000     -0.63722413
end