dft
  xc pbe
  restart true
  noiter true
  protocol [1.e-6]
  nopen 1
end

geometry
  units angstrom
   N          0.00000000      0.00000000      0.42424634
   H         -0.80231209      0.00000000     -0.21212317
   H          0.80231209      0.00000000     -0.21212317
end