dft
  xc pbe
  restart true
  noiter true
  protocol [1.e-6]
  nopen 2
end

geometry
  units angstrom
   C          0.00087040     -0.50561060      0.00000000
   H         -1.05537693     -0.74805845      0.00000000
   H          0.52074787     -0.77071253      0.91244975
   H          0.52074787     -0.77071253     -0.91244975
   H          0.01214038      0.79677557      0.00000000
   O          0.00087040      1.99831855      0.00000000
end