dft
  xc pbe
  restart true
  noiter true
  protocol [1.e-6]
  nopen 1
end

geometry
  units angstrom
   H         -0.60861063      0.82103438      0.00000000
   C          0.30430532      0.17779826      0.00000000
   O          0.30430532     -0.99883264      0.00000000
end