dft
  xc pbe
  restart true
  noiter true
  protocol [1.e-6]
  nopen 0
end

geometry
  units angstrom
   C          0.66559385      0.00000000      0.00000000
   C         -0.66559385      0.00000000      0.00000000
   H          1.23167063     -0.92149339      0.00000000
   H          1.23167063      0.92149339      0.00000000
   H         -1.23167063     -0.92149339      0.00000000
   H         -1.23167063      0.92149339      0.00000000
end