dft
  xc pbe
  restart true
  noiter true
  protocol [1.e-6]
  nopen 0
  charge 0
end

geometry
  units angstrom
   C          0.00000000      0.00000000     -0.02902643
   N          0.00000000      0.00000000      1.12397830
   H          0.00000000      0.00000000     -1.09495187
end