dft
  xc pbe
  restart true
  noiter true
  protocol [1.e-6]
  nopen 0
end

geometry
  units angstrom
   C          0.37482171      0.51783010      0.00000000
   N          0.37482171     -0.67052208      0.00000000
   H         -0.74964343      0.15269198      0.00000000
end