dft
  xc pbe
  restart true
  noiter true
  protocol [1.e-6]
  nopen 0
  charge 0
end

geometry
  units angstrom
   S          0.00000000      0.00000000      0.61511669
   H         -0.96625120      0.00000000     -0.30755835
   H          0.96625120      0.00000000     -0.30755835
end