dft
  xc pbe
  restart true
  noiter true
  protocol [1.e-6]
  nopen 1
  charge 0
end

geometry
  units angstrom
   H         -1.08633280      0.93797902      0.00000000
   C          0.54316640      0.09847636      0.00000000
   O          0.54316640     -1.03645538      0.00000000
end