dft
  xc pbe
  restart true
  noiter true
  protocol [1.e-6]
  nopen 1
end

geometry
  units angstrom
   H          0.00000000      0.00000000      0.00000000
   H          0.00000000      0.00000000      0.92947338
   H          0.00000000      0.00000000     -0.92947338
end