dft
  xc pbe
  nopen 0
  charge 0
end

geometry
  units angstrom
   N          0.00000000      0.00000000     -1.14272669
   N          0.00000000      0.00000000     -0.02216159
   O          0.00000000      0.00000000      1.16488828
end