dft
  xc pbe
  restart true
  noiter true
  protocol [1.e-6]
  nopen 0
end

geometry
  units angstrom
   H          0.00000000      0.00000000      0.37093843
   H          0.00000000      0.00000000     -0.37093843
end