dft
  xc pbe
  restart true
  noiter true
  protocol [1.e-6]
  nopen 2
  charge 0
end

geometry
  units angstrom
   N          0.00000000      0.00000000      0.51836669
   H          0.00000000      0.00000000     -0.51836669
end