dft
  xc pbe
  restart true
  noiter true
  protocol [1.e-6]
  nopen 1
  charge 0
end

geometry
  units angstrom
   H         -0.26904536     -1.53918757      0.00000000
   O         -0.82676854     -0.22999776      0.00000000
   N          0.03423988      0.64855342      0.00000000
   N          1.06157401      1.12063191      0.00000000
end