dft
  xc pbe
  nopen 1
  charge 0
end

geometry
  units angstrom
   H          0.00000000      0.00000000      1.48580271
   CL         0.00000000      0.00000000      0.00000000
   H          0.00000000      0.00000000     -1.48580271
end