dft
 xc pbe
 restart true
 noiter true
 protocol [1.e-6]
 charge 0
 nopen 1
end

geometry
 units angstrom
   C         -0.02568214     -0.62490995      0.00000000
   C         -0.02568214      0.86613162      0.00000000
   H          0.99397568     -1.02873569      0.00000000
   H         -0.52372742     -1.02453402      0.88341908
   H         -0.52372742     -1.02453402     -0.88341908
   H          0.05242172      1.41829103     -0.92431919
   H          0.05242172      1.41829103      0.92431919
end
