dft
  xc pbe
  nopen 2
  charge 0
end

geometry
  units angstrom
   H          0.00000000      0.00000000     -0.09256457
   O          0.00000000      0.00000000      1.09674807
   H          0.00000000      0.00000000     -1.00418350
end