dft
  xc pbe
  restart true
  noiter true
  protocol [1.e-6]
  nopen 0
  charge -1
end

geometry
  units angstrom
   F          0.00000000      0.00000000     -1.88993626
   C          0.00000000      0.00000000     -0.48156276
   H         -0.51236000      0.88743354     -0.12780248
   H         -0.51236000     -0.88743354     -0.12780248
   H          1.02471999      0.00000000     -0.12780248
   CL         0.00000000      0.00000000      2.75490646
end