dft
  xc pbe
  restart true
  noiter true
  protocol [1.e-6]
  nopen 0
end

geometry
  units angstrom
   N          0.00000000      0.00000000     -1.14272669
   N          0.00000000      0.00000000     -0.02216159
   O          0.00000000      0.00000000      1.16488828
end