dft
  xc pbe
  nopen 1
  charge 0
end

geometry
  units angstrom
   H          0.00000000      0.00000000     -0.25661586
   CL         0.00000000      0.00000000      1.28726458
   H          0.00000000      0.00000000     -1.03064872
end