dft
  xc pbe
  restart true
  noiter true
  protocol [1.e-6]
  nopen 1
end

geometry
  units angstrom
   N          0.42281633     -0.96904807      0.00000000
   N          0.42281633      0.15376339      0.00000000
   H         -0.84563265      0.81528469      0.00000000
end