dft
  xc pbe
  restart true
  noiter true
  protocol [1.e-6]
  nopen 0
end

geometry
  units angstrom
   N          0.00000000      0.00000000      0.54855572
   N          0.00000000      0.00000000     -0.54855572
end