dft
  xc pbe
  restart true
  noiter true
  protocol [1.e-6]
  nopen 1
end

geometry
  units angstrom
   S          0.00000000      0.00000000      0.67010165
   H          0.00000000      0.00000000     -0.67010165
end