dft
  xc pbe
  nopen 1
  charge 0
end

geometry
  units angstrom
   F          0.00000000      0.00000000      0.00000000
end