dft
  xc pbe
  nopen 0
  charge 0
end

geometry
  units angstrom
   O          0.00000000      0.00000000      0.39048483
   H         -0.75670759      0.00000000     -0.19524242
   H          0.75670759      0.00000000     -0.19524242
end