dft
  xc pbe
  restart true
  noiter true
  protocol [1.e-6]
  nopen 0
end

geometry
  units angstrom
   N          0.00000000      0.00000000      0.28222663
   H          0.46901226      0.81235307     -0.09407554
   H          0.46901226     -0.81235307     -0.09407554
   H         -0.93802452      0.00000000     -0.09407554
end