dft
  xc pbe
  restart true
  noiter true
  protocol [1.e-6]
  nopen 1
  charge 0
end

geometry
  units angstrom
   H          0.14656781     -0.24726460      0.00000000
   F          0.00000000      1.21154849      0.00000000
   H         -0.14656781     -0.96428389      0.00000000
end