dft
  xc pbe
  restart true
  noiter true
  protocol [1.e-6]
  nopen 2
end

geometry
  units angstrom
   CL         0.16310278     -1.28988895      0.00000000
   H         -0.32620556      0.09689412      0.00000000
   O          0.16310278      1.19299483      0.00000000
end