dft
  xc pbe
  restart true
  noiter true
  protocol [1.e-6]
  nopen 0
end

geometry
  units angstrom
   C          0.00000000      0.00000000     -0.14991697
   CL         0.00000000      0.00000000      1.63280180
   H         -0.51399780     -0.89027030     -0.49429494
   H         -0.51399780      0.89027030     -0.49429494
   H          1.02799560      0.00000000     -0.49429494
end