dft
  xc pbe
  restart true
  noiter true
  protocol [1.e-6]
  nopen 0
  charge -1
end

geometry
  units angstrom
   CL         0.00000000      0.00000000      0.00000000
end