dft
  xc pbe
  restart true
  noiter true
  protocol [1.e-6]
  nopen 0
  charge 0
end

geometry
  units angstrom
   C          0.00000000      0.00000000      0.00000000
   H          0.62783705     -0.62783705      0.62783705
   H         -0.62783705      0.62783705      0.62783705
   H         -0.62783705     -0.62783705     -0.62783705
   H          0.62783705      0.62783705     -0.62783705
end