dft
  xc pbe
  restart true
  noiter true
  protocol [1.e-6]
  nopen 1
end

geometry
  units angstrom
   H          0.00000000      0.00000000      1.48580271
   CL         0.00000000      0.00000000      0.00000000
   H          0.00000000      0.00000000     -1.48580271
end