dft
  xc pbe
  nopen 0
  charge 0
end

geometry
  units angstrom
   C          0.37482171      0.51783010      0.00000000
   N          0.37482171     -0.67052208      0.00000000
   H         -0.74964343      0.15269198      0.00000000
end