dft
  xc pbe
  restart true
  noiter true
  protocol [1.e-6]
  nopen 0
  charge 0
end

geometry
  units angstrom
   C          0.00000000      0.00000000     -1.11118191
   N          0.00000000      0.00000000      0.05815587
   H          0.00000000      0.00000000      1.05302603
end