dft
  xc pbe
  restart true
  noiter true
  protocol [1.e-6]
  nopen 1
  charge 0
end

geometry
  units angstrom
   C          0.00000000      0.00000000      0.00000000
   H          0.53865812      0.93298323      0.00000000
   H          0.53865812     -0.93298323      0.00000000
   H         -1.07731624      0.00000000      0.00000000
end