dft
  xc pbe
  restart true
  noiter true
  protocol [1.e-6]
  nopen 1
end

geometry
  units angstrom
   N         -0.31221246      0.94105672      0.00000000
   N         -0.31221246     -0.23714479      0.00000000
   H          0.62442492     -0.70391193      0.00000000
end