dft
  xc pbe
  nopen 1
  charge 0
end

geometry
  units angstrom
   H          0.00000000      0.00000000      1.13721778
   F          0.00000000      0.00000000      0.00000000
   H          0.00000000      0.00000000     -1.13721778
end