dft
  xc pbe
  restart true
  noiter true
  protocol [1.e-6]
  nopen 0
end

geometry
  units angstrom
   F          0.00000000      0.00000000      0.45769122
   H          0.00000000      0.00000000     -0.45769122
end