dft
  xc pbe
  restart true
  noiter true
  protocol [1.e-6]
  nopen 0
end

geometry
  units angstrom
   O          0.00000000      0.00000000      0.48102212
   H          0.00000000      0.00000000     -0.48102212
end