dft
  xc pbe
  nopen 0
  charge 0
end

geometry
  units angstrom
   F          0.00000000      0.00000000      0.69760378
   F          0.00000000      0.00000000     -0.69760378
end