dft
  xc pbe
  nopen 0
  charge 0
end

geometry
  units angstrom
   H          0.98497349      0.91525439      0.00000000
   N          0.00000000      0.62159276      0.00000000
   N          0.00000000     -0.62159276      0.00000000
   H         -0.98497349     -0.91525439      0.00000000
end