dft
  xc pbe
  restart true
  noiter true
  protocol [1.e-6]
  nopen 2
end

geometry
  units angstrom
   H          0.00000000      0.00000000     -0.09256457
   O          0.00000000      0.00000000      1.09674807
   H          0.00000000      0.00000000     -1.00418350
end