dft
  xc pbe
  restart true
  noiter true
  protocol [1.e-6]
  nopen 1
  charge 0
end

geometry
  units angstrom
   H          0.62463306     -0.70403964      0.00000000
   N         -0.31231653     -0.23709575      0.00000000
   N         -0.31231653      0.94113539      0.00000000
end