dft
  xc pbe
  restart true
  noiter true
  protocol [1.e-6]
  nopen 1
end

geometry
  units angstrom
   H          0.00000000      0.00000000     -1.57015709
   F          0.00000000      0.00000000      0.04490245
   F          0.00000000      0.00000000      1.52525464
end