dft
  xc pbe
  restart true
  noiter true
  protocol [1.e-6]
  nopen 0
end

geometry
  units angstrom
   H          0.98497349      0.91525439      0.00000000
   N          0.00000000      0.62159276      0.00000000
   N          0.00000000     -0.62159276      0.00000000
   H         -0.98497349     -0.91525439      0.00000000
end